(declare-const a Real)
(declare-const b Real)
(declare-const c Real)
(assert (<= (+ (pow a 2) (pow b 2) (pow c 2) (pow (+ a b c) 2)) 4))
(assert (>= a 0))
(assert (>= b 0))
(assert (>= c 0))
(assert (not (<= (* -1 (pow (* (+ 1 (* b c)) (+ a b) (+ a c)) (pow (+ 1 (* -3 (+ a b) (+ a c) (+ (pow b 2) (pow c 2) (* 2 b c))) (* 2 (pow (+ 1 (* a b)) (/ 1 2)) (pow (+ 1 (* a c)) (/ 1 2)) (+ (pow b 2) (pow c 2) (* 2 b c)))) -1)) (+ a b) (+ a c) (+ 1 (* (pow (* (+ 1 (* a b)) (+ 1 (* a c))) (/ 1 2)) (+ (* 2 (pow b 2)) (* 2 (pow c 2)) (* 4 b c))) (* -3 (+ a b) (+ a c) (+ (pow b 2) (pow c 2) (* 2 b c))))) 0)))
(check-sat)
(get-model)
(exit)